1040
1 0 5 521 0 1040 1 1039 1 1038 1 1037 1
2 0 5 522 1 784 1 671 1 790 1 754 1
3 0 5 523 1 600 1 870 1 578 1 763 1
4 0 5 524 1 713 1 1009 1 812 1 676 1
5 0 5 525 1 706 1 839 1 534 1 929 1
6 0 5 526 1 700 1 638 1 726 1 621 1
7 0 5 527 1 674 1 1002 1 921 1 739 1
8 0 5 528 1 945 1 794 1 708 1 580 1
9 0 5 529 1 619 1 749 1 571 1 674 1
10 0 5 530 1 655 1 649 1 875 1 540 1
11 0 5 531 1 786 1 819 1 771 1 764 1
12 0 5 532 1 890 1 830 1 750 1 999 1
13 0 5 533 1 629 1 794 1 945 1 883 1
14 0 5 534 1 867 1 839 1 929 1 753 1
15 0 5 535 1 907 1 556 1 802 1 780 1
16 0 5 536 1 627 1 1017 1 632 1 855 1
17 0 5 537 1 637 1 866 1 678 1 572 1
18 0 5 538 1 981 1 989 1 775 1 975 1
19 0 5 539 1 521 1 707 1 957 1 771 1
20 0 5 540 1 530 1 655 1 875 1 936 1
21 0 5 541 1 998 1 640 1 968 1 864 1
22 0 5 542 1 641 1 767 1 621 1 726 1
23 0 5 543 1 1016 1 760 1 929 1 547 1
24 0 5 544 1 859 1 901 1 716 1 554 1
25 0 5 545 1 798 1 716 1 1009 1 713 1
26 0 5 546 1 669 1 668 1 731 1 641 1
27 0 5 547 1 832 1 972 1 760 1 877 1
28 0 5 548 1 753 1 805 1 995 1 867 1
29 0 5 549 1 876 1 826 1 661 1 567 1
30 0 5 550 1 807 1 643 1 906 1 729 1
31 0 5 551 1 710 1 623 1 895 1 934 1
32 0 5 552 1 711 1 700 1 644 1 715 1
33 0 5 553 1 526 1 695 1 621 1 700 1
34 0 5 554 1 633 1 901 1 602 1 672 1
35 0 5 555 1 911 1 925 1 788 1 750 1
36 0 5 556 1 569 1 719 1 853 1 610 1
37 0 5 557 1 1005 1 598 1 892 1 872 1
38 0 5 558 1 824 1 690 1 964 1 967 1
39 0 5 559 1 956 1 926 1 568 1 620 1
40 0 5 560 1 854 1 827 1 862 1 940 1
41 0 5 561 1 645 1 802 1 851 1 705 1
42 0 5 562 1 936 1 735 1 695 1 607 1
43 0 5 563 1 750 1 532 1 999 1 955 1
44 0 5 564 1 822 1 646 1 966 1 895 1
45 0 5 565 1 735 1 607 1 639 1 562 1
46 0 5 566 1 926 1 568 1 583 1 799 1
47 0 5 567 1 874 1 553 1 935 1 876 1
48 0 5 568 1 566 1 799 1 926 1 849 1
49 0 5 569 1 610 1 693 1 589 1 853 1
50 0 5 570 1 521 1 904 1 987 1 657 1
51 0 5 571 1 529 1 619 1 579 1 674 1
52 0 5 572 1 537 1 681 1 896 1 678 1
53 0 5 573 1 932 1 930 1 691 1 777 1
54 0 5 574 1 933 1 664 1 908 1 1006 1
55 0 5 575 1 609 1 818 1 622 1 603 1
56 0 5 576 1 643 1 809 1 666 1 731 1
57 0 5 577 1 602 1 762 1 862 1 1021 1
58 0 5 578 1 763 1 523 1 917 1 870 1
59 0 5 579 1 773 1 778 1 590 1 571 1
60 0 5 580 1 755 1 615 1 905 1 886 1
61 0 5 581 1 913 1 762 1 670 1 672 1
62 0 5 582 1 746 1 868 1 594 1 722 1
63 0 5 583 1 568 1 849 1 566 1 615 1
64 0 5 584 1 642 1 844 1 880 1 768 1
65 0 5 585 1 796 1 620 1 969 1 926 1
66 0 5 586 1 836 1 855 1 742 1 912 1
67 0 5 587 1 882 1 739 1 766 1 1002 1
68 0 5 588 1 893 1 584 1 658 1 867 1
69 0 5 589 1 677 1 792 1 791 1 610 1
70 0 5 590 1 571 1 579 1 961 1 773 1
71 0 5 591 1 863 1 582 1 793 1 804 1
72 0 5 592 1 811 1 546 1 680 1 997 1
73 0 5 593 1 747 1 742 1 558 1 923 1
74 0 5 594 1 868 1 629 1 795 1 883 1
75 0 5 595 1 766 1 943 1 969 1 905 1
76 0 5 596 1 563 1 630 1 999 1 830 1
77 0 5 597 1 606 1 959 1 678 1 837 1
78 0 5 598 1 557 1 872 1 1005 1 892 1
79 0 5 599 1 997 1 1005 1 872 1 602 1
80 0 5 600 1 928 1 523 1 996 1 870 1
81 0 5 601 1 682 1 835 1 865 1 821 1
82 0 5 602 1 1021 1 872 1 577 1 762 1
83 0 5 603 1 575 1 646 1 906 1 818 1
84 0 5 604 1 1014 1 833 1 848 1 974 1
85 0 5 605 1 975 1 899 1 856 1 775 1
86 0 5 606 1 597 1 673 1 959 1 837 1
87 0 5 607 1 801 1 697 1 735 1 562 1
88 0 5 608 1 942 1 895 1 971 1 1013 1
89 0 5 609 1 575 1 818 1 718 1 761 1
90 0 5 610 1 792 1 569 1 885 1 677 1
91 0 5 611 1 828 1 603 1 659 1 971 1
92 0 5 612 1 989 1 774 1 855 1 686 1
93 0 5 613 1 1008 1 857 1 578 1 821 1
94 0 5 614 1 906 1 657 1 603 1 729 1
95 0 5 615 1 884 1 849 1 799 1 566 1
96 0 5 616 1 683 1 1013 1 648 1 679 1
97 0 5 617 1 721 1 717 1 958 1 990 1
98 0 5 618 1 1009 1 838 1 545 1 676 1
99 0 5 619 1 749 1 923 1 529 1 674 1
100 0 5 620 1 956 1 918 1 796 1 926 1
101 0 5 621 1 542 1 553 1 726 1 549 1
102 0 5 622 1 718 1 761 1 643 1 729 1
103 0 5 623 1 906 1 729 1 807 1 551 1
104 0 5 624 1 974 1 994 1 730 1 702 1
105 0 5 625 1 938 1 944 1 829 1 941 1
106 0 5 626 1 960 1 656 1 959 1 833 1
107 0 5 627 1 1017 1 632 1 1001 1 884 1
108 0 5 628 1 667 1 813 1 632 1 836 1
109 0 5 629 1 725 1 868 1 883 1 594 1
110 0 5 630 1 596 1 563 1 830 1 999 1
111 0 5 631 1 837 1 789 1 821 1 996 1
112 0 5 632 1 651 1 1001 1 667 1 813 1
113 0 5 633 1 892 1 554 1 1021 1 740 1
114 0 5 634 1 521 1 904 1 770 1 815 1
115 0 5 635 1 851 1 885 1 824 1 1020 1
116 0 5 636 1 965 1 896 1 937 1 900 1
117 0 5 637 1 924 1 866 1 678 1 850 1
118 0 5 638 1 644 1 700 1 526 1 726 1
119 0 5 639 1 697 1 977 1 565 1 965 1
120 0 5 640 1 998 1 693 1 864 1 664 1
121 0 5 641 1 668 1 546 1 767 1 1003 1
122 0 5 642 1 880 1 584 1 919 1 768 1
123 0 5 643 1 550 1 807 1 729 1 718 1
124 0 5 644 1 951 1 941 1 910 1 751 1
125 0 5 645 1 832 1 561 1 547 1 972 1
126 0 5 646 1 966 1 609 1 663 1 895 1
127 0 5 647 1 607 1 874 1 894 1 697 1
128 0 5 648 1 616 1 736 1 757 1 904 1
129 0 5 649 1 660 1 984 1 655 1 831 1
130 0 5 650 1 891 1 904 1 570 1 815 1
131 0 5 651 1 664 1 836 1 864 1 632 1
132 0 5 652 1 769 1 715 1 700 1 696 1
133 0 5 653 1 982 1 672 1 781 1 762 1
134 0 5 654 1 687 1 737 1 735 1 889 1
135 0 5 655 1 649 1 660 1 984 1 831 1
136 0 5 656 1 894 1 960 1 626 1 977 1
137 0 5 657 1 845 1 987 1 906 1 570 1
138 0 5 658 1 772 1 816 1 1004 1 995 1
139 0 5 659 1 828 1 748 1 611 1 786 1
140 0 5 660 1 649 1 984 1 655 1 732 1
141 0 5 661 1 621 1 947 1 542 1 1005 1
142 0 5 662 1 1018 1 716 1 545 1 544 1
143 0 5 663 1 680 1 718 1 669 1 729 1
144 0 5 664 1 651 1 864 1 970 1 968 1
145 0 5 665 1 815 1 693 1 692 1 885 1
146 0 5 666 1 973 1 761 1 812 1 809 1
147 0 5 667 1 628 1 632 1 813 1 1001 1
148 0 5 668 1 1003 1 551 1 669 1 767 1
149 0 5 669 1 551 1 680 1 718 1 546 1
150 0 5 670 1 913 1 826 1 699 1 581 1
151 0 5 671 1 777 1 840 1 814 1 817 1
152 0 5 672 1 762 1 888 1 699 1 633 1
153 0 5 673 1 887 1 709 1 606 1 857 1
154 0 5 674 1 684 1 527 1 1002 1 571 1
155 0 5 675 1 712 1 613 1 673 1 860 1
156 0 5 676 1 728 1 782 1 952 1 713 1
157 0 5 677 1 792 1 1020 1 635 1 885 1
158 0 5 678 1 808 1 850 1 924 1 866 1
159 0 5 679 1 948 1 815 1 891 1 683 1
160 0 5 680 1 731 1 592 1 663 1 669 1
161 0 5 681 1 572 1 537 1 896 1 678 1
162 0 5 682 1 835 1 879 1 613 1 821 1
163 0 5 683 1 552 1 948 1 711 1 616 1
164 0 5 684 1 667 1 628 1 632 1 674 1
165 0 5 685 1 812 1 666 1 973 1 698 1
166 0 5 686 1 774 1 739 1 587 1 1001 1
167 0 5 687 1 654 1 955 1 890 1 946 1
168 0 5 688 1 764 1 995 1 531 1 771 1
169 0 5 689 1 771 1 846 1 531 1 757 1
170 0 5 690 1 964 1 824 1 724 1 558 1
171 0 5 691 1 843 1 1015 1 930 1 733 1
172 0 5 692 1 998 1 679 1 640 1 693 1
173 0 5 693 1 885 1 939 1 665 1 998 1
174 0 5 694 1 612 1 855 1 714 1 536 1
175 0 5 695 1 831 1 553 1 649 1 655 1
176 0 5 696 1 715 1 920 1 758 1 950 1
177 0 5 697 1 565 1 639 1 977 1 607 1
178 0 5 698 1 811 1 782 1 685 1 666 1
179 0 5 699 1 672 1 992 1 670 1 913 1
180 0 5 700 1 638 1 553 1 526 1 941 1
181 0 5 701 1 648 1 1013 1 608 1 787 1
182 0 5 702 1 720 1 624 1 848 1 974 1
183 0 5 703 1 733 1 930 1 932 1 838 1
184 0 5 704 1 886 1 918 1 841 1 909 1
185 0 5 705 1 953 1 851 1 635 1 800 1
186 0 5 706 1 525 1 839 1 929 1 534 1
187 0 5 707 1 689 1 995 1 771 1 957 1
188 0 5 708 1 580 1 999 1 615 1 755 1
189 0 5 709 1 887 1 860 1 986 1 857 1
190 0 5 710 1 934 1 895 1 551 1 668 1
191 0 5 711 1 552 1 715 1 696 1 700 1
192 0 5 712 1 709 1 675 1 613 1 673 1
193 0 5 713 1 545 1 524 1 676 1 1009 1
194 0 5 714 1 855 1 727 1 785 1 847 1
195 0 5 715 1 696 1 914 1 758 1 711 1
196 0 5 716 1 662 1 798 1 545 1 544 1
197 0 5 717 1 617 1 806 1 801 1 902 1
198 0 5 718 1 663 1 729 1 807 1 731 1
199 0 5 719 1 853 1 556 1 679 1 616 1
200 0 5 720 1 702 1 848 1 974 1 888 1
201 0 5 721 1 978 1 990 1 796 1 600 1
202 0 5 722 1 788 1 582 1 555 1 746 1
203 0 5 723 1 969 1 799 1 587 1 755 1
204 0 5 724 1 743 1 953 1 964 1 851 1
205 0 5 725 1 591 1 804 1 842 1 582 1
206 0 5 726 1 767 1 732 1 542 1 951 1
207 0 5 727 1 714 1 855 1 586 1 747 1
208 0 5 728 1 782 1 1015 1 685 1 676 1
209 0 5 729 1 623 1 807 1 718 1 614 1
210 0 5 730 1 881 1 624 1 673 1 974 1
211 0 5 731 1 809 1 718 1 680 1 546 1
212 0 5 732 1 726 1 765 1 920 1 984 1
213 0 5 733 1 838 1 703 1 1015 1 779 1
214 0 5 734 1 873 1 818 1 575 1 622 1
215 0 5 735 1 889 1 737 1 562 1 654 1
216 0 5 736 1 657 1 845 1 757 1 570 1
217 0 5 737 1 889 1 654 1 562 1 735 1
218 0 5 738 1 642 1 919 1 877 1 880 1
219 0 5 739 1 587 1 1002 1 882 1 684 1
220 0 5 740 1 900 1 937 1 636 1 892 1
221 0 5 741 1 756 1 1019 1 748 1 734 1
222 0 5 742 1 586 1 1007 1 593 1 836 1
223 0 5 743 1 877 1 738 1 949 1 964 1
224 0 5 744 1 827 1 754 1 522 1 560 1
225 0 5 745 1 634 1 904 1 800 1 878 1
226 0 5 746 1 879 1 594 1 868 1 591 1
227 0 5 747 1 558 1 593 1 1007 1 776 1
228 0 5 748 1 1019 1 756 1 741 1 786 1
229 0 5 749 1 923 1 742 1 593 1 619 1
230 0 5 750 1 555 1 911 1 925 1 806 1
231 0 5 751 1 941 1 869 1 644 1 951 1
232 0 5 752 1 640 1 998 1 864 1 939 1
233 0 5 753 1 805 1 954 1 871 1 658 1
234 0 5 754 1 522 1 744 1 827 1 560 1
235 0 5 755 1 615 1 587 1 905 1 886 1
236 0 5 756 1 603 1 575 1 818 1 734 1
237 0 5 757 1 608 1 971 1 736 1 521 1
238 0 5 758 1 914 1 679 1 715 1 950 1
239 0 5 759 1 656 1 960 1 894 1 626 1
240 0 5 760 1 929 1 547 1 972 1 561 1
241 0 5 761 1 576 1 609 1 932 1 666 1
242 0 5 762 1 581 1 672 1 602 1 913 1
243 0 5 763 1 600 1 578 1 821 1 523 1
244 0 5 764 1 983 1 898 1 531 1 995 1
245 0 5 765 1 920 1 732 1 831 1 914 1
246 0 5 766 1 739 1 969 1 595 1 1002 1
247 0 5 767 1 668 1 951 1 641 1 751 1
248 0 5 768 1 954 1 844 1 919 1 584 1
249 0 5 769 1 993 1 962 1 980 1 695 1
250 0 5 770 1 521 1 745 1 987 1 991 1
251 0 5 771 1 531 1 786 1 819 1 846 1
252 0 5 772 1 816 1 1004 1 976 1 893 1
253 0 5 773 1 579 1 961 1 778 1 590 1
254 0 5 774 1 538 1 686 1 989 1 975 1
255 0 5 775 1 856 1 1011 1 605 1 538 1
256 0 5 776 1 1007 1 747 1 820 1 558 1
257 0 5 777 1 573 1 862 1 817 1 827 1
258 0 5 778 1 783 1 579 1 590 1 571 1
259 0 5 779 1 922 1 1015 1 676 1 814 1
260 0 5 780 1 800 1 878 1 745 1 705 1
261 0 5 781 1 577 1 982 1 790 1 901 1
262 0 5 782 1 698 1 685 1 728 1 676 1
263 0 5 783 1 590 1 571 1 778 1 605 1
264 0 5 784 1 790 1 522 1 862 1 754 1
265 0 5 785 1 847 1 989 1 727 1 714 1
266 0 5 786 1 819 1 906 1 771 1 603 1
267 0 5 787 1 608 1 942 1 1013 1 757 1
268 0 5 788 1 582 1 746 1 555 1 868 1
269 0 5 789 1 833 1 837 1 808 1 681 1
270 0 5 790 1 653 1 781 1 862 1 577 1
271 0 5 791 1 1020 1 690 1 677 1 589 1
272 0 5 792 1 677 1 885 1 610 1 635 1
273 0 5 793 1 870 1 863 1 746 1 591 1
274 0 5 794 1 533 1 528 1 945 1 629 1
275 0 5 795 1 861 1 858 1 804 1 746 1
276 0 5 796 1 620 1 956 1 559 1 926 1
277 0 5 797 1 950 1 946 1 758 1 541 1
278 0 5 798 1 716 1 545 1 662 1 1009 1
279 0 5 799 1 723 1 568 1 969 1 926 1
280 0 5 800 1 745 1 878 1 705 1 949 1
281 0 5 801 1 717 1 697 1 607 1 806 1
282 0 5 802 1 561 1 878 1 556 1 780 1
283 0 5 803 1 857 1 850 1 763 1 924 1
284 0 5 804 1 795 1 842 1 883 1 868 1
285 0 5 805 1 954 1 768 1 919 1 871 1
286 0 5 806 1 902 1 555 1 916 1 750 1
287 0 5 807 1 729 1 643 1 623 1 718 1
288 0 5 808 1 965 1 928 1 996 1 833 1
289 0 5 809 1 666 1 731 1 973 1 546 1
290 0 5 810 1 596 1 630 1 1010 1 536 1
291 0 5 811 1 592 1 546 1 997 1 680 1
292 0 5 812 1 952 1 576 1 666 1 685 1
293 0 5 813 1 651 1 541 1 968 1 864 1
294 0 5 814 1 840 1 922 1 843 1 671 1
295 0 5 815 1 634 1 692 1 745 1 650 1
296 0 5 816 1 976 1 772 1 995 1 1004 1
297 0 5 817 1 544 1 862 1 940 1 790 1
298 0 5 818 1 622 1 575 1 609 1 761 1
299 0 5 819 1 823 1 898 1 764 1 852 1
300 0 5 820 1 776 1 1020 1 558 1 1007 1
301 0 5 821 1 763 1 613 1 837 1 600 1
302 0 5 822 1 869 1 944 1 829 1 751 1
303 0 5 823 1 852 1 898 1 976 1 979 1
304 0 5 824 1 690 1 953 1 964 1 724 1
305 0 5 825 1 853 1 903 1 719 1 1006 1
306 0 5 826 1 549 1 1005 1 913 1 670 1
307 0 5 827 1 522 1 754 1 560 1 744 1
308 0 5 828 1 734 1 873 1 756 1 611 1
309 0 5 829 1 625 1 938 1 944 1 700 1
310 0 5 830 1 532 1 999 1 890 1 955 1
311 0 5 831 1 660 1 695 1 649 1 920 1
312 0 5 832 1 972 1 547 1 791 1 645 1
313 0 5 833 1 604 1 789 1 1014 1 974 1
314 0 5 834 1 949 1 705 1 953 1 743 1
315 0 5 835 1 682 1 601 1 959 1 631 1
316 0 5 836 1 912 1 864 1 752 1 632 1
317 0 5 837 1 606 1 857 1 789 1 821 1
318 0 5 838 1 779 1 1015 1 676 1 703 1
319 0 5 839 1 534 1 867 1 929 1 706 1
320 0 5 840 1 671 1 814 1 777 1 779 1
321 0 5 841 1 909 1 943 1 886 1 905 1
322 0 5 842 1 909 1 804 1 886 1 883 1
323 0 5 843 1 814 1 779 1 840 1 671 1
324 0 5 844 1 584 1 1004 1 768 1 893 1
325 0 5 845 1 614 1 906 1 786 1 603 1
326 0 5 846 1 771 1 689 1 531 1 757 1
327 0 5 847 1 785 1 727 1 714 1 989 1
328 0 5 848 1 604 1 720 1 974 1 833 1
329 0 5 849 1 583 1 568 1 968 1 970 1
330 0 5 850 1 678 1 857 1 924 1 866 1
331 0 5 851 1 705 1 635 1 953 1 824 1
332 0 5 852 1 521 1 979 1 987 1 976 1
333 0 5 853 1 1006 1 569 1 939 1 693 1
334 0 5 854 1 940 1 997 1 599 1 817 1
335 0 5 855 1 536 1 612 1 1001 1 989 1
336 0 5 856 1 775 1 605 1 975 1 1011 1
337 0 5 857 1 821 1 837 1 850 1 803 1
338 0 5 858 1 988 1 978 1 804 1 842 1
339 0 5 859 1 901 1 544 1 716 1 554 1
340 0 5 860 1 986 1 709 1 887 1 857 1
341 0 5 861 1 858 1 795 1 917 1 591 1
342 0 5 862 1 560 1 827 1 790 1 817 1
343 0 5 863 1 793 1 870 1 746 1 591 1
344 0 5 864 1 939 1 998 1 752 1 541 1
345 0 5 865 1 1012 1 601 1 613 1 682 1
346 0 5 866 1 678 1 924 1 637 1 537 1
347 0 5 867 1 957 1 995 1 880 1 588 1
348 0 5 868 1 594 1 629 1 804 1 795 1
349 0 5 869 1 751 1 621 1 941 1 625 1
350 0 5 870 1 523 1 861 1 578 1 600 1
351 0 5 871 1 588 1 954 1 1004 1 753 1
352 0 5 872 1 598 1 557 1 892 1 1005 1
353 0 5 873 1 818 1 761 1 609 1 622 1
354 0 5 874 1 759 1 894 1 567 1 935 1
355 0 5 875 1 540 1 530 1 965 1 958 1
356 0 5 876 1 549 1 567 1 553 1 621 1
357 0 5 877 1 738 1 919 1 642 1 768 1
358 0 5 878 1 780 1 745 1 800 1 705 1
359 0 5 879 1 917 1 746 1 578 1 613 1
360 0 5 880 1 642 1 979 1 995 1 584 1
361 0 5 881 1 597 1 730 1 606 1 624 1
362 0 5 882 1 899 1 587 1 1002 1 739 1
363 0 5 883 1 804 1 842 1 629 1 594 1
364 0 5 884 1 615 1 849 1 627 1 1017 1
365 0 5 885 1 635 1 693 1 792 1 851 1
366 0 5 886 1 905 1 704 1 918 1 841 1
367 0 5 887 1 860 1 709 1 673 1 986 1
368 0 5 888 1 992 1 848 1 974 1 672 1
369 0 5 889 1 737 1 654 1 562 1 936 1
370 0 5 890 1 916 1 955 1 806 1 687 1
371 0 5 891 1 719 1 825 1 679 1 648 1
372 0 5 892 1 1005 1 1021 1 947 1 633 1
373 0 5 893 1 658 1 1004 1 844 1 880 1
374 0 5 894 1 977 1 656 1 697 1 670 1
375 0 5 895 1 934 1 564 1 971 1 657 1
376 0 5 896 1 937 1 900 1 965 1 572 1
377 0 5 897 1 985 1 961 1 778 1 538 1
378 0 5 898 1 979 1 976 1 816 1 995 1
379 0 5 899 1 921 1 882 1 605 1 1002 1
380 0 5 900 1 937 1 740 1 896 1 636 1
381 0 5 901 1 554 1 859 1 544 1 602 1
382 0 5 902 1 806 1 916 1 617 1 717 1
383 0 5 903 1 908 1 569 1 853 1 825 1
384 0 5 904 1 521 1 987 1 745 1 757 1
385 0 5 905 1 841 1 886 1 943 1 704 1
386 0 5 906 1 1000 1 845 1 614 1 786 1
387 0 5 907 1 589 1 569 1 610 1 903 1
388 0 5 908 1 933 1 664 1 939 1 651 1
389 0 5 909 1 704 1 841 1 918 1 842 1
390 0 5 910 1 931 1 710 1 895 1 683 1
391 0 5 911 1 925 1 555 1 725 1 863 1
392 0 5 912 1 752 1 640 1 864 1 836 1
393 0 5 913 1 670 1 826 1 892 1 699 1
394 0 5 914 1 679 1 948 1 683 1 758 1
395 0 5 915 1 740 1 900 1 1014 1 937 1
396 0 5 916 1 890 1 902 1 806 1 750 1
397 0 5 917 1 1008 1 879 1 578 1 746 1
398 0 5 918 1 927 1 585 1 842 1 804 1
399 0 5 919 1 768 1 877 1 547 1 738 1
400 0 5 920 1 765 1 831 1 950 1 914 1
401 0 5 921 1 1011 1 1002 1 943 1 766 1
402 0 5 922 1 618 1 779 1 838 1 733 1
403 0 5 923 1 967 1 593 1 747 1 558 1
404 0 5 924 1 850 1 866 1 678 1 857 1
405 0 5 925 1 629 1 725 1 911 1 617 1
406 0 5 926 1 969 1 799 1 568 1 566 1
407 0 5 927 1 585 1 620 1 969 1 926 1
408 0 5 928 1 996 1 958 1 808 1 639 1
409 0 5 929 1 760 1 957 1 867 1 738 1
410 0 5 930 1 703 1 691 1 932 1 733 1
411 0 5 931 1 710 1 910 1 895 1 551 1
412 0 5 932 1 930 1 703 1 685 1 733 1
413 0 5 933 1 908 1 664 1 574 1 651 1
414 0 5 934 1 895 1 951 1 614 1 657 1
415 0 5 935 1 567 1 876 1 647 1 874 1
416 0 5 936 1 695 1 562 1 655 1 717 1
417 0 5 937 1 636 1 915 1 896 1 900 1
418 0 5 938 1 935 1 567 1 874 1 944 1
419 0 5 939 1 998 1 1006 1 693 1 908 1
420 0 5 940 1 817 1 698 1 997 1 599 1
421 0 5 941 1 869 1 751 1 644 1 700 1
422 0 5 942 1 963 1 895 1 971 1 683 1
423 0 5 943 1 595 1 921 1 841 1 905 1
424 0 5 944 1 938 1 935 1 869 1 625 1
425 0 5 945 1 794 1 533 1 528 1 708 1
426 0 5 946 1 797 1 970 1 968 1 950 1
427 0 5 947 1 661 1 636 1 1005 1 892 1
428 0 5 948 1 650 1 891 1 570 1 815 1
429 0 5 949 1 834 1 705 1 743 1 745 1
430 0 5 950 1 758 1 946 1 797 1 920 1
431 0 5 951 1 910 1 931 1 644 1 941 1
432 0 5 952 1 838 1 685 1 932 1 666 1
433 0 5 953 1 834 1 949 1 743 1 724 1
434 0 5 954 1 871 1 768 1 919 1 588 1
435 0 5 955 1 687 1 890 1 654 1 830 1
436 0 5 956 1 559 1 620 1 926 1 568 1
437 0 5 957 1 521 1 539 1 995 1 880 1
438 0 5 958 1 875 1 936 1 540 1 717 1
439 0 5 959 1 631 1 821 1 837 1 597 1
440 0 5 960 1 626 1 656 1 894 1 759 1
441 0 5 961 1 773 1 778 1 783 1 590 1
442 0 5 962 1 980 1 946 1 955 1 687 1
443 0 5 963 1 564 1 822 1 895 1 966 1
444 0 5 964 1 724 1 824 1 690 1 743 1
445 0 5 965 1 896 1 875 1 636 1 540 1
446 0 5 966 1 663 1 646 1 564 1 609 1
447 0 5 967 1 558 1 690 1 964 1 923 1
448 0 5 968 1 813 1 970 1 541 1 632 1
449 0 5 969 1 723 1 926 1 595 1 927 1
450 0 5 970 1 968 1 946 1 574 1 980 1
451 0 5 971 1 736 1 895 1 845 1 614 1
452 0 5 972 1 791 1 561 1 851 1 705 1
453 0 5 973 1 685 1 666 1 812 1 576 1
454 0 5 974 1 702 1 720 1 888 1 848 1
455 0 5 975 1 981 1 605 1 775 1 856 1
456 0 5 976 1 898 1 1004 1 979 1 772 1
457 0 5 977 1 639 1 894 1 697 1 656 1
458 0 5 978 1 721 1 990 1 988 1 804 1
459 0 5 979 1 521 1 995 1 987 1 904 1
460 0 5 980 1 962 1 970 1 946 1 955 1
461 0 5 981 1 975 1 590 1 961 1 538 1
462 0 5 982 1 781 1 577 1 901 1 672 1
463 0 5 983 1 748 1 1019 1 531 1 741 1
464 0 5 984 1 732 1 726 1 920 1 660 1
465 0 5 985 1 897 1 579 1 538 1 981 1
466 0 5 986 1 803 1 887 1 857 1 924 1
467 0 5 987 1 521 1 904 1 657 1 757 1
468 0 5 988 1 978 1 523 1 858 1 600 1
469 0 5 989 1 538 1 612 1 785 1 1001 1
470 0 5 990 1 721 1 750 1 600 1 617 1
471 0 5 991 1 802 1 535 1 878 1 907 1
472 0 5 992 1 699 1 915 1 848 1 604 1
473 0 5 993 1 962 1 980 1 695 1 696 1
474 0 5 994 1 730 1 881 1 624 1 974 1
475 0 5 995 1 764 1 658 1 753 1 816 1
476 0 5 996 1 958 1 928 1 565 1 808 1
477 0 5 997 1 599 1 1005 1 872 1 892 1
478 0 5 998 1 665 1 692 1 939 1 640 1
479 0 5 999 1 830 1 532 1 596 1 630 1
480 0 5 1000 1 906 1 657 1 852 1 614 1
481 0 5 1001 1 686 1 632 1 739 1 667 1
482 0 5 1002 1 527 1 1011 1 674 1 739 1
483 0 5 1003 1 951 1 663 1 941 1 669 1
484 0 5 1004 1 844 1 893 1 976 1 772 1
485 0 5 1005 1 947 1 892 1 1021 1 997 1
486 0 5 1006 1 574 1 939 1 908 1 933 1
487 0 5 1007 1 593 1 742 1 747 1 923 1
488 0 5 1008 1 675 1 712 1 613 1 917 1
489 0 5 1009 1 524 1 713 1 545 1 676 1
490 0 5 1010 1 810 1 536 1 1017 1 596 1
491 0 5 1011 1 527 1 856 1 605 1 899 1
492 0 5 1012 1 865 1 601 1 613 1 1008 1
493 0 5 1013 1 616 1 648 1 683 1 971 1
494 0 5 1014 1 915 1 681 1 937 1 572 1
495 0 5 1015 1 779 1 676 1 728 1 838 1
496 0 5 1016 1 645 1 561 1 832 1 547 1
497 0 5 1017 1 884 1 627 1 1001 1 536 1
498 0 5 1018 1 662 1 940 1 716 1 544 1
499 0 5 1019 1 741 1 748 1 756 1 734 1
500 0 5 1020 1 820 1 727 1 690 1 558 1
501 0 5 1021 1 602 1 599 1 892 1 826 1
502 0 5 1022 0 521 1 1022 1 1023 1 1024 1
503 0 5 1023 0 521 1 1022 1 1023 1 1024 1
504 0 5 1024 0 521 1 1022 1 1023 1 1024 1
505 0 5 1025 0 521 1 1022 1 1023 1 1024 1
506 0 5 1026 0 521 1 1022 1 1023 1 1024 1
507 0 5 1027 0 521 1 1022 1 1023 1 1024 1
508 0 5 1028 0 521 1 1022 1 1023 1 1024 1
509 0 5 1029 0 521 1 1022 1 1023 1 1024 1
510 0 5 1030 0 521 1 1022 1 1023 1 1024 1
511 0 5 1031 0 521 1 1022 1 1023 1 1024 1
512 0 5 1032 0 521 1 1022 1 1023 1 1024 1
513 0 5 1033 0 521 1 1022 1 1023 1 1024 1
514 0 5 1034 0 521 1 1022 1 1023 1 1024 1
515 0 5 1035 0 521 1 1022 1 1023 1 1024 1
516 0 5 1036 0 521 1 1022 1 1023 1 1024 1
517 0 5 1037 0 521 1 1022 1 1023 1 1024 1
518 0 5 1038 0 521 1 1022 1 1023 1 1024 1
519 0 5 1039 0 521 1 1022 1 1023 1 1024 1
520 0 5 1040 0 521 1 1022 1 1023 1 1024 1
521 0 5 1 0 520 1 519 1 518 1 517 1
522 0 5 2 1 307 1 234 1 264 1 224 1
523 0 5 3 1 350 1 80 1 58 1 273 1
524 0 5 4 1 489 1 193 1 318 1 98 1
525 0 5 5 1 186 1 1 1 14 1 28 1
526 0 5 6 1 33 1 118 1 180 1 101 1
527 0 5 7 1 491 1 482 1 401 1 336 1
528 0 5 8 1 274 1 425 1 188 1 60 1
529 0 5 9 1 51 1 99 1 154 1 487 1
530 0 5 10 1 20 1 416 1 135 1 355 1
531 0 5 11 1 251 1 244 1 169 1 168 1
532 0 5 12 1 310 1 43 1 479 1 370 1
533 0 5 13 1 274 1 425 1 363 1 366 1
534 0 5 14 1 319 1 5 1 186 1 1 1
535 0 5 15 1 471 1 387 1 280 1 260 1
536 0 5 16 1 335 1 497 1 490 1 174 1
537 0 5 17 1 52 1 161 1 346 1 153 1
538 0 5 18 1 469 1 254 1 461 1 92 1
539 0 5 19 1 1 1 437 1 187 1 169 1
540 0 5 20 1 355 1 438 1 10 1 416 1
541 0 5 21 1 293 1 448 1 344 1 277 1
542 0 5 22 1 101 1 206 1 247 1 118 1
543 0 5 23 1 496 1 437 1 409 1 223 1
544 0 5 24 1 297 1 339 1 381 1 420 1
545 0 5 25 1 193 1 278 1 98 1 489 1
546 0 5 26 1 72 1 291 1 121 1 211 1
547 0 5 27 1 312 1 240 1 125 1 399 1
548 0 5 28 1 186 1 437 1 475 1 14 1
549 0 5 29 1 306 1 356 1 415 1 101 1
550 0 5 30 1 123 1 83 1 287 1 209 1
551 0 5 31 1 149 1 148 1 411 1 209 1
552 0 5 32 1 163 1 191 1 180 1 195 1
553 0 5 33 1 101 1 47 1 175 1 356 1
554 0 5 34 1 381 1 152 1 113 1 82 1
555 0 5 35 1 230 1 391 1 286 1 268 1
556 0 5 36 1 282 1 199 1 15 1 333 1
557 0 5 37 1 78 1 352 1 79 1 477 1
558 0 5 38 1 447 1 227 1 73 1 256 1
559 0 5 39 1 436 1 406 1 48 1 100 1
560 0 5 40 1 342 1 307 1 57 1 234 1
561 0 5 41 1 282 1 452 1 125 1 496 1
562 0 5 42 1 215 1 416 1 369 1 217 1
563 0 5 43 1 76 1 110 1 435 1 230 1
564 0 5 44 1 443 1 446 1 375 1 302 1
565 0 5 45 1 177 1 119 1 111 1 476 1
566 0 5 46 1 48 1 63 1 406 1 95 1
567 0 5 47 1 415 1 356 1 418 1 175 1
568 0 5 48 1 63 1 46 1 406 1 329 1
569 0 5 49 1 36 1 333 1 90 1 383 1
570 0 5 50 1 130 1 428 1 216 1 137 1
571 0 5 51 1 70 1 263 1 59 1 18 1
572 0 5 52 1 161 1 158 1 17 1 269 1
573 0 5 53 1 257 1 410 1 183 1 171 1
574 0 5 54 1 486 1 450 1 413 1 144 1
575 0 5 55 1 83 1 89 1 236 1 298 1
576 0 5 56 1 241 1 453 1 146 1 292 1
577 0 5 57 1 261 1 82 1 462 1 270 1
578 0 5 58 1 243 1 3 1 93 1 350 1
579 0 5 59 1 253 1 465 1 258 1 70 1
580 0 5 60 1 188 1 8 1 274 1 425 1
581 0 5 61 1 242 1 150 1 152 1 239 1
582 0 5 62 1 268 1 71 1 205 1 202 1
583 0 5 63 1 329 1 46 1 95 1 364 1
584 0 5 64 1 324 1 68 1 122 1 248 1
585 0 5 65 1 407 1 398 1 385 1 322 1
586 0 5 66 1 222 1 207 1 194 1 227 1
587 0 5 67 1 362 1 219 1 203 1 235 1
588 0 5 68 1 351 1 64 1 347 1 373 1
589 0 5 69 1 387 1 49 1 271 1 383 1
590 0 5 70 1 263 1 461 1 59 1 441 1
591 0 5 71 1 205 1 62 1 273 1 226 1
592 0 5 72 1 291 1 160 1 349 1 149 1
593 0 5 73 1 487 1 227 1 403 1 222 1
594 0 5 74 1 348 1 62 1 226 1 363 1
595 0 5 75 1 423 1 246 1 449 1 67 1
596 0 5 76 1 110 1 290 1 479 1 310 1
597 0 5 77 1 361 1 86 1 317 1 153 1
598 0 5 78 1 352 1 79 1 485 1 372 1
599 0 5 79 1 477 1 501 1 485 1 334 1
600 0 5 80 1 243 1 3 1 301 1 350 1
601 0 5 81 1 345 1 492 1 315 1 162 1
602 0 5 82 1 57 1 501 1 79 1 372 1
603 0 5 83 1 236 1 91 1 94 1 102 1
604 0 5 84 1 313 1 328 1 106 1 472 1
605 0 5 85 1 336 1 455 1 491 1 255 1
606 0 5 86 1 77 1 317 1 361 1 153 1
607 0 5 87 1 45 1 127 1 177 1 42 1
608 0 5 88 1 237 1 267 1 181 1 422 1
609 0 5 89 1 55 1 126 1 298 1 446 1
610 0 5 90 1 49 1 272 1 157 1 36 1
611 0 5 91 1 326 1 83 1 228 1 139 1
612 0 5 92 1 335 1 469 1 174 1 194 1
613 0 5 93 1 162 1 192 1 301 1 155 1
614 0 5 94 1 325 1 386 1 375 1 209 1
615 0 5 95 1 235 1 364 1 60 1 63 1
616 0 5 96 1 128 1 493 1 199 1 163 1
617 0 5 97 1 197 1 382 1 405 1 134 1
618 0 5 98 1 402 1 156 1 318 1 259 1
619 0 5 99 1 9 1 51 1 487 1 229 1
620 0 5 100 1 276 1 406 1 407 1 65 1
621 0 5 101 1 141 1 349 1 356 1 118 1
622 0 5 102 1 298 1 89 1 198 1 241 1
623 0 5 103 1 209 1 31 1 287 1 94 1
624 0 5 104 1 210 1 182 1 361 1 200 1
625 0 5 105 1 309 1 349 1 302 1 424 1
626 0 5 106 1 440 1 136 1 454 1 84 1
627 0 5 107 1 16 1 497 1 364 1 112 1
628 0 5 108 1 147 1 164 1 112 1 293 1
629 0 5 109 1 74 1 348 1 13 1 363 1
630 0 5 110 1 76 1 290 1 310 1 479 1
631 0 5 111 1 439 1 301 1 315 1 476 1
632 0 5 112 1 481 1 107 1 131 1 108 1
633 0 5 113 1 34 1 152 1 372 1 82 1
634 0 5 114 1 225 1 295 1 130 1 384 1
635 0 5 115 1 365 1 331 1 157 1 272 1
636 0 5 116 1 417 1 445 1 376 1 427 1
637 0 5 117 1 17 1 346 1 404 1 158 1
638 0 5 118 1 180 1 6 1 421 1 33 1
639 0 5 119 1 457 1 177 1 45 1 111 1
640 0 5 120 1 232 1 392 1 344 1 172 1
641 0 5 121 1 22 1 247 1 26 1 101 1
642 0 5 122 1 64 1 218 1 360 1 399 1
643 0 5 123 1 56 1 287 1 102 1 30 1
644 0 5 124 1 118 1 421 1 231 1 431 1
645 0 5 125 1 496 1 41 1 312 1 282 1
646 0 5 126 1 83 1 446 1 44 1 375 1
647 0 5 127 1 415 1 356 1 354 1 87 1
648 0 5 128 1 1 1 493 1 181 1 96 1
649 0 5 129 1 140 1 135 1 311 1 175 1
650 0 5 130 1 428 1 163 1 295 1 128 1
651 0 5 131 1 112 1 144 1 293 1 413 1
652 0 5 132 1 305 1 199 1 96 1 394 1
653 0 5 133 1 270 1 61 1 462 1 261 1
654 0 5 134 1 167 1 369 1 217 1 435 1
655 0 5 135 1 10 1 416 1 20 1 129 1
656 0 5 136 1 239 1 440 1 374 1 106 1
657 0 5 137 1 216 1 94 1 375 1 386 1
658 0 5 138 1 373 1 68 1 475 1 347 1
659 0 5 139 1 326 1 91 1 11 1 251 1
660 0 5 140 1 129 1 311 1 135 1 175 1
661 0 5 141 1 427 1 485 1 29 1 101 1
662 0 5 142 1 196 1 498 1 24 1 278 1
663 0 5 143 1 198 1 446 1 160 1 209 1
664 0 5 144 1 413 1 131 1 54 1 388 1
665 0 5 145 1 478 1 173 1 159 1 419 1
666 0 5 146 1 289 1 165 1 453 1 56 1
667 0 5 147 1 108 1 164 1 112 1 219 1
668 0 5 148 1 121 1 247 1 149 1 231 1
669 0 5 149 1 26 1 160 1 143 1 148 1
670 0 5 150 1 393 1 179 1 61 1 306 1
671 0 5 151 1 320 1 264 1 323 1 294 1
672 0 5 152 1 179 1 242 1 133 1 368 1
673 0 5 153 1 86 1 337 1 367 1 317 1
674 0 5 154 1 7 1 482 1 219 1 481 1
675 0 5 155 1 488 1 192 1 93 1 58 1
676 0 5 156 1 495 1 193 1 259 1 98 1
677 0 5 157 1 272 1 69 1 90 1 500 1
678 0 5 158 1 346 1 330 1 77 1 404 1
679 0 5 159 1 394 1 238 1 96 1 199 1
680 0 5 160 1 143 1 72 1 149 1 211 1
681 0 5 161 1 494 1 52 1 269 1 158 1
682 0 5 162 1 81 1 315 1 359 1 345 1
683 0 5 163 1 96 1 128 1 493 1 394 1
684 0 5 164 1 154 1 219 1 482 1 481 1
685 0 5 165 1 453 1 178 1 412 1 262 1
686 0 5 166 1 481 1 254 1 92 1 497 1
687 0 5 167 1 435 1 134 1 370 1 442 1
688 0 5 168 1 1 1 475 1 187 1 169 1
689 0 5 169 1 187 1 1 1 19 1 326 1
690 0 5 170 1 304 1 38 1 447 1 500 1
691 0 5 171 1 410 1 53 1 183 1 208 1
692 0 5 172 1 478 1 344 1 419 1 145 1
693 0 5 173 1 365 1 419 1 49 1 145 1
694 0 5 174 1 92 1 497 1 16 1 335 1
695 0 5 175 1 416 1 311 1 473 1 33 1
696 0 5 176 1 195 1 191 1 473 1 460 1
697 0 5 177 1 119 1 87 1 457 1 281 1
698 0 5 178 1 262 1 165 1 420 1 156 1
699 0 5 179 1 472 1 152 1 150 1 368 1
700 0 5 180 1 6 1 118 1 32 1 191 1
701 0 5 181 1 1 1 267 1 371 1 237 1
702 0 5 182 1 454 1 200 1 104 1 328 1
703 0 5 183 1 410 1 412 1 318 1 213 1
704 0 5 184 1 389 1 366 1 321 1 385 1
705 0 5 185 1 331 1 41 1 280 1 115 1
706 0 5 186 1 5 1 1 1 14 1 319 1
707 0 5 187 1 1 1 19 1 475 1 169 1
708 0 5 188 1 479 1 95 1 364 1 48 1
709 0 5 189 1 192 1 153 1 367 1 340 1
710 0 5 190 1 31 1 411 1 390 1 148 1
711 0 5 191 1 32 1 195 1 176 1 163 1
712 0 5 192 1 155 1 488 1 93 1 397 1
713 0 5 193 1 4 1 489 1 156 1 25 1
714 0 5 194 1 207 1 327 1 265 1 66 1
715 0 5 195 1 176 1 191 1 238 1 132 1
716 0 5 196 1 278 1 25 1 24 1 339 1
717 0 5 197 1 281 1 97 1 134 1 416 1
718 0 5 198 1 102 1 143 1 89 1 211 1
719 0 5 199 1 36 1 305 1 333 1 159 1
720 0 5 200 1 182 1 454 1 328 1 104 1
721 0 5 201 1 97 1 458 1 276 1 80 1
722 0 5 202 1 62 1 363 1 268 1 348 1
723 0 5 203 1 279 1 449 1 95 1 235 1
724 0 5 204 1 444 1 304 1 170 1 331 1
725 0 5 205 1 109 1 405 1 391 1 284 1
726 0 5 206 1 464 1 212 1 6 1 118 1
727 0 5 207 1 327 1 194 1 265 1 66 1
728 0 5 208 1 156 1 318 1 53 1 262 1
729 0 5 209 1 287 1 198 1 102 1 103 1
730 0 5 210 1 474 1 361 1 104 1 182 1
731 0 5 211 1 160 1 289 1 56 1 198 1
732 0 5 212 1 464 1 245 1 206 1 400 1
733 0 5 213 1 183 1 410 1 412 1 171 1
734 0 5 214 1 308 1 236 1 221 1 353 1
735 0 5 215 1 45 1 87 1 134 1 217 1
736 0 5 216 1 451 1 128 1 237 1 137 1
737 0 5 217 1 369 1 215 1 134 1 42 1
738 0 5 218 1 357 1 399 1 409 1 240 1
739 0 5 219 1 67 1 246 1 166 1 481 1
740 0 5 220 1 380 1 395 1 113 1 417 1
741 0 5 221 1 499 1 236 1 228 1 266 1
742 0 5 222 1 73 1 229 1 487 1 66 1
743 0 5 223 1 204 1 444 1 429 1 433 1
744 0 5 224 1 307 1 234 1 264 1 2 1
745 0 5 225 1 280 1 358 1 260 1 429 1
746 0 5 226 1 62 1 268 1 273 1 74 1
747 0 5 227 1 73 1 256 1 487 1 207 1
748 0 5 228 1 463 1 139 1 236 1 499 1
749 0 5 229 1 99 1 487 1 9 1 154 1
750 0 5 230 1 43 1 396 1 12 1 286 1
751 0 5 231 1 421 1 349 1 247 1 302 1
752 0 5 232 1 392 1 344 1 316 1 227 1
753 0 5 233 1 28 1 475 1 351 1 14 1
754 0 5 234 1 224 1 307 1 264 1 270 1
755 0 5 235 1 60 1 203 1 406 1 67 1
756 0 5 236 1 221 1 228 1 499 1 308 1
757 0 5 237 1 1 1 128 1 216 1 267 1
758 0 5 238 1 430 1 277 1 176 1 195 1
759 0 5 239 1 354 1 127 1 106 1 150 1
760 0 5 240 1 409 1 23 1 27 1 399 1
761 0 5 241 1 102 1 146 1 198 1 412 1
762 0 5 242 1 57 1 152 1 61 1 82 1
763 0 5 243 1 58 1 301 1 283 1 3 1
764 0 5 244 1 168 1 475 1 378 1 187 1
765 0 5 245 1 400 1 212 1 311 1 176 1
766 0 5 246 1 75 1 67 1 401 1 423 1
767 0 5 247 1 206 1 121 1 22 1 118 1
768 0 5 248 1 399 1 285 1 64 1 68 1
769 0 5 249 1 175 1 180 1 442 1 176 1
770 0 5 250 1 114 1 225 1 358 1 437 1
771 0 5 251 1 326 1 169 1 187 1 11 1
772 0 5 252 1 138 1 296 1 484 1 475 1
773 0 5 253 1 441 1 59 1 70 1 377 1
774 0 5 254 1 166 1 92 1 455 1 469 1
775 0 5 255 1 336 1 455 1 18 1 85 1
776 0 5 256 1 300 1 227 1 207 1 157 1
777 0 5 257 1 151 1 53 1 320 1 342 1
778 0 5 258 1 59 1 253 1 441 1 377 1
779 0 5 259 1 495 1 318 1 402 1 323 1
780 0 5 260 1 358 1 282 1 41 1 471 1
781 0 5 261 1 462 1 342 1 270 1 133 1
782 0 5 262 1 208 1 178 1 156 1 165 1
783 0 5 263 1 258 1 441 1 59 1 70 1
784 0 5 264 1 2 1 234 1 270 1 307 1
785 0 5 265 1 327 1 469 1 194 1 92 1
786 0 5 266 1 11 1 386 1 325 1 83 1
787 0 5 267 1 1 1 237 1 181 1 371 1
788 0 5 268 1 202 1 62 1 74 1 226 1
789 0 5 269 1 313 1 111 1 317 1 104 1
790 0 5 270 1 264 1 342 1 261 1 297 1
791 0 5 271 1 452 1 41 1 125 1 69 1
792 0 5 272 1 90 1 157 1 365 1 69 1
793 0 5 273 1 343 1 71 1 226 1 405 1
794 0 5 274 1 425 1 8 1 13 1 109 1
795 0 5 275 1 284 1 341 1 74 1 348 1
796 0 5 276 1 65 1 100 1 407 1 398 1
797 0 5 277 1 426 1 430 1 450 1 238 1
798 0 5 278 1 25 1 196 1 98 1 193 1
799 0 5 279 1 203 1 406 1 48 1 95 1
800 0 5 280 1 260 1 358 1 225 1 185 1
801 0 5 281 1 87 1 197 1 177 1 435 1
802 0 5 282 1 471 1 41 1 15 1 23 1
803 0 5 283 1 466 1 337 1 367 1 340 1
804 0 5 284 1 363 1 322 1 348 1 205 1
805 0 5 285 1 233 1 28 1 14 1 434 1
806 0 5 286 1 382 1 396 1 197 1 370 1
807 0 5 287 1 209 1 30 1 198 1 123 1
808 0 5 288 1 158 1 330 1 269 1 408 1
809 0 5 289 1 211 1 56 1 146 1 160 1
810 0 5 290 1 490 1 76 1 497 1 110 1
811 0 5 291 1 72 1 178 1 160 1 420 1
812 0 5 292 1 165 1 453 1 146 1 4 1
813 0 5 293 1 448 1 108 1 112 1 147 1
814 0 5 294 1 323 1 259 1 320 1 151 1
815 0 5 295 1 145 1 225 1 173 1 130 1
816 0 5 296 1 252 1 138 1 475 1 378 1
817 0 5 297 1 420 1 257 1 342 1 24 1
818 0 5 298 1 89 1 55 1 353 1 236 1
819 0 5 299 1 266 1 11 1 386 1 244 1
820 0 5 300 1 500 1 256 1 157 1 207 1
821 0 5 301 1 337 1 111 1 243 1 317 1
822 0 5 302 1 44 1 443 1 424 1 105 1
823 0 5 303 1 299 1 266 1 386 1 244 1
824 0 5 304 1 38 1 170 1 115 1 444 1
825 0 5 305 1 383 1 371 1 295 1 172 1
826 0 5 306 1 150 1 393 1 29 1 501 1
827 0 5 307 1 224 1 342 1 234 1 257 1
828 0 5 308 1 139 1 91 1 353 1 463 1
829 0 5 309 1 302 1 105 1 180 1 424 1
830 0 5 310 1 479 1 12 1 110 1 435 1
831 0 5 311 1 175 1 135 1 129 1 400 1
832 0 5 312 1 27 1 125 1 496 1 23 1
833 0 5 313 1 269 1 84 1 328 1 106 1
834 0 5 314 1 433 1 429 1 185 1 225 1
835 0 5 315 1 81 1 162 1 301 1 476 1
836 0 5 316 1 66 1 131 1 112 1 392 1
837 0 5 317 1 111 1 337 1 301 1 269 1
838 0 5 318 1 213 1 98 1 495 1 183 1
839 0 5 319 1 5 1 186 1 14 1 1 1
840 0 5 320 1 294 1 151 1 323 1 264 1
841 0 5 321 1 385 1 389 1 184 1 423 1
842 0 5 322 1 284 1 363 1 389 1 398 1
843 0 5 323 1 171 1 294 1 410 1 259 1
844 0 5 324 1 484 1 64 1 248 1 373 1
845 0 5 325 1 137 1 216 1 386 1 451 1
846 0 5 326 1 169 1 1 1 187 1 19 1
847 0 5 327 1 265 1 194 1 174 1 92 1
848 0 5 328 1 200 1 182 1 368 1 454 1
849 0 5 329 1 364 1 63 1 95 1 450 1
850 0 5 330 1 404 1 158 1 337 1 283 1
851 0 5 331 1 115 1 185 1 41 1 452 1
852 0 5 332 1 303 1 378 1 480 1 456 1
853 0 5 333 1 199 1 36 1 305 1 49 1
854 0 5 334 1 40 1 342 1 420 1 307 1
855 0 5 335 1 194 1 92 1 207 1 174 1
856 0 5 336 1 255 1 491 1 85 1 455 1
857 0 5 337 1 317 1 330 1 93 1 301 1
858 0 5 338 1 341 1 275 1 322 1 350 1
859 0 5 339 1 24 1 381 1 261 1 297 1
860 0 5 340 1 367 1 189 1 337 1 153 1
861 0 5 341 1 275 1 350 1 71 1 62 1
862 0 5 342 1 257 1 297 1 57 1 270 1
863 0 5 343 1 71 1 273 1 405 1 391 1
864 0 5 344 1 144 1 131 1 316 1 392 1
865 0 5 345 1 492 1 81 1 317 1 301 1
866 0 5 346 1 117 1 404 1 17 1 158 1
867 0 5 347 1 14 1 409 1 68 1 475 1
868 0 5 348 1 74 1 62 1 109 1 363 1
869 0 5 349 1 421 1 302 1 231 1 424 1
870 0 5 350 1 273 1 3 1 343 1 58 1
871 0 5 351 1 434 1 285 1 233 1 64 1
872 0 5 352 1 82 1 79 1 78 1 372 1
873 0 5 353 1 214 1 308 1 499 1 236 1
874 0 5 354 1 47 1 127 1 415 1 356 1
875 0 5 355 1 438 1 445 1 20 1 10 1
876 0 5 356 1 29 1 415 1 47 1 354 1
877 0 5 357 1 223 1 218 1 399 1 27 1
878 0 5 358 1 282 1 280 1 471 1 260 1
879 0 5 359 1 226 1 162 1 397 1 93 1
880 0 5 360 1 122 1 64 1 347 1 373 1
881 0 5 361 1 210 1 474 1 104 1 77 1
882 0 5 362 1 67 1 379 1 219 1 401 1
883 0 5 363 1 284 1 109 1 74 1 322 1
884 0 5 364 1 95 1 497 1 107 1 63 1
885 0 5 365 1 173 1 115 1 272 1 90 1
886 0 5 366 1 184 1 385 1 321 1 406 1
887 0 5 367 1 189 1 153 1 340 1 466 1
888 0 5 368 1 106 1 152 1 454 1 200 1
889 0 5 369 1 217 1 215 1 134 1 416 1
890 0 5 370 1 396 1 12 1 435 1 167 1
891 0 5 371 1 130 1 159 1 428 1 295 1
892 0 5 372 1 113 1 501 1 485 1 393 1
893 0 5 373 1 68 1 484 1 324 1 360 1
894 0 5 374 1 136 1 457 1 354 1 239 1
895 0 5 375 1 190 1 31 1 411 1 88 1
896 0 5 376 1 445 1 417 1 161 1 380 1
897 0 5 377 1 465 1 18 1 455 1 469 1
898 0 5 378 1 456 1 303 1 475 1 296 1
899 0 5 379 1 362 1 85 1 491 1 219 1
900 0 5 380 1 220 1 395 1 417 1 376 1
901 0 5 381 1 339 1 34 1 24 1 261 1
902 0 5 382 1 286 1 396 1 134 1 197 1
903 0 5 383 1 305 1 387 1 69 1 120 1
904 0 5 384 1 130 1 50 1 114 1 225 1
905 0 5 385 1 366 1 321 1 235 1 184 1
906 0 5 386 1 94 1 325 1 103 1 83 1
907 0 5 387 1 15 1 69 1 260 1 358 1
908 0 5 388 1 413 1 383 1 486 1 54 1
909 0 5 389 1 321 1 322 1 184 1 423 1
910 0 5 390 1 431 1 411 1 124 1 375 1
911 0 5 391 1 35 1 405 1 230 1 268 1
912 0 5 392 1 316 1 66 1 222 1 232 1
913 0 5 393 1 61 1 150 1 306 1 179 1
914 0 5 394 1 238 1 195 1 430 1 245 1
915 0 5 395 1 494 1 472 1 417 1 179 1
916 0 5 396 1 370 1 382 1 12 1 286 1
917 0 5 397 1 359 1 58 1 226 1 162 1
918 0 5 398 1 184 1 389 1 366 1 322 1
919 0 5 399 1 357 1 248 1 218 1 285 1
920 0 5 400 1 245 1 176 1 311 1 430 1
921 0 5 401 1 379 1 423 1 362 1 246 1
922 0 5 402 1 259 1 294 1 213 1 495 1
923 0 5 403 1 229 1 487 1 73 1 99 1
924 0 5 404 1 117 1 158 1 346 1 330 1
925 0 5 405 1 391 1 35 1 230 1 286 1
926 0 5 406 1 46 1 449 1 48 1 279 1
927 0 5 407 1 398 1 449 1 385 1 406 1
928 0 5 408 1 80 1 476 1 288 1 119 1
929 0 5 409 1 240 1 399 1 14 1 23 1
930 0 5 410 1 412 1 53 1 183 1 171 1
931 0 5 411 1 390 1 431 1 375 1 231 1
932 0 5 412 1 53 1 410 1 183 1 165 1
933 0 5 413 1 54 1 388 1 486 1 419 1
934 0 5 414 1 190 1 375 1 31 1 390 1
935 0 5 415 1 418 1 47 1 424 1 105 1
936 0 5 416 1 42 1 369 1 87 1 197 1
937 0 5 417 1 380 1 220 1 395 1 494 1
938 0 5 418 1 105 1 424 1 309 1 415 1
939 0 5 419 1 344 1 486 1 173 1 388 1
940 0 5 420 1 334 1 262 1 342 1 257 1
941 0 5 421 1 231 1 124 1 349 1 302 1
942 0 5 422 1 88 1 267 1 493 1 237 1
943 0 5 423 1 75 1 321 1 401 1 385 1
944 0 5 424 1 302 1 105 1 309 1 418 1
945 0 5 425 1 8 1 13 1 274 1 366 1
946 0 5 426 1 450 1 430 1 442 1 277 1
947 0 5 427 1 485 1 141 1 372 1 150 1
948 0 5 428 1 159 1 163 1 394 1 96 1
949 0 5 429 1 314 1 433 1 185 1 280 1
950 0 5 430 1 277 1 176 1 238 1 400 1
951 0 5 431 1 124 1 247 1 118 1 231 1
952 0 5 432 1 292 1 156 1 193 1 4 1
953 0 5 433 1 185 1 304 1 204 1 331 1
954 0 5 434 1 248 1 285 1 351 1 233 1
955 0 5 435 1 167 1 370 1 442 1 310 1
956 0 5 436 1 100 1 276 1 406 1 48 1
957 0 5 437 1 347 1 1 1 409 1 19 1
958 0 5 438 1 476 1 408 1 97 1 45 1
959 0 5 439 1 77 1 86 1 315 1 476 1
960 0 5 440 1 106 1 136 1 239 1 374 1
961 0 5 441 1 253 1 461 1 377 1 70 1
962 0 5 442 1 460 1 473 1 450 1 249 1
963 0 5 443 1 422 1 88 1 44 1 126 1
964 0 5 444 1 170 1 304 1 204 1 38 1
965 0 5 445 1 116 1 288 1 417 1 119 1
966 0 5 446 1 126 1 44 1 375 1 89 1
967 0 5 447 1 403 1 487 1 227 1 73 1
968 0 5 448 1 450 1 293 1 144 1 131 1
969 0 5 449 1 203 1 406 1 246 1 279 1
970 0 5 450 1 448 1 460 1 144 1 426 1
971 0 5 451 1 237 1 375 1 493 1 422 1
972 0 5 452 1 312 1 27 1 240 1 125 1
973 0 5 453 1 146 1 289 1 165 1 211 1
974 0 5 454 1 104 1 328 1 182 1 200 1
975 0 5 455 1 85 1 461 1 336 1 18 1
976 0 5 456 1 296 1 484 1 378 1 252 1
977 0 5 457 1 374 1 119 1 177 1 136 1
978 0 5 458 1 468 1 201 1 338 1 80 1
979 0 5 459 1 378 1 332 1 475 1 360 1
980 0 5 460 1 442 1 473 1 450 1 54 1
981 0 5 461 1 455 1 18 1 70 1 465 1
982 0 5 462 1 133 1 261 1 342 1 270 1
983 0 5 463 1 244 1 168 1 228 1 499 1
984 0 5 464 1 140 1 129 1 135 1 212 1
985 0 5 465 1 377 1 18 1 265 1 469 1
986 0 5 466 1 340 1 367 1 189 1 330 1
987 0 5 467 1 137 1 332 1 50 1 384 1
988 0 5 468 1 338 1 458 1 350 1 3 1
989 0 5 469 1 92 1 18 1 265 1 194 1
990 0 5 470 1 201 1 458 1 438 1 97 1
991 0 5 471 1 250 1 295 1 429 1 225 1
992 0 5 472 1 368 1 179 1 328 1 152 1
993 0 5 473 1 249 1 175 1 442 1 460 1
994 0 5 474 1 104 1 210 1 361 1 328 1
995 0 5 475 1 347 1 296 1 187 1 168 1
996 0 5 476 1 408 1 80 1 111 1 288 1
997 0 5 477 1 79 1 501 1 334 1 372 1
998 0 5 478 1 419 1 344 1 232 1 173 1
999 0 5 479 1 188 1 310 1 76 1 12 1
1000 0 5 480 1 386 1 94 1 83 1 332 1
1001 0 5 481 1 112 1 335 1 497 1 131 1
1002 0 5 482 1 401 1 219 1 7 1 362 1
1003 0 5 483 1 148 1 121 1 247 1 26 1
1004 0 5 484 1 373 1 324 1 252 1 138 1
1005 0 5 485 1 372 1 79 1 477 1 306 1
1006 0 5 486 1 333 1 419 1 54 1 173 1
1007 0 5 487 1 256 1 227 1 222 1 194 1
1008 0 5 488 1 93 1 397 1 359 1 301 1
1009 0 5 489 1 98 1 25 1 193 1 4 1
1010 0 5 490 1 290 1 54 1 413 1 497 1
1011 0 5 491 1 255 1 401 1 482 1 336 1
1012 0 5 492 1 345 1 81 1 488 1 162 1
1013 0 5 493 1 181 1 267 1 96 1 163 1
1014 0 5 494 1 84 1 395 1 313 1 328 1
1015 0 5 495 1 318 1 259 1 171 1 208 1
1016 0 5 496 1 23 1 312 1 471 1 223 1
1017 0 5 497 1 107 1 16 1 364 1 112 1
1018 0 5 498 1 142 1 24 1 196 1 381 1
1019 0 5 499 1 228 1 463 1 221 1 236 1
1020 0 5 500 1 271 1 157 1 115 1 300 1
1021 0 5 501 1 82 1 372 1 113 1 57 1
1022 0 5 502 0 520 1 519 1 518 1 517 1
1023 0 5 503 0 520 1 519 1 518 1 517 1
1024 0 5 504 0 520 1 519 1 518 1 517 1
1025 0 5 505 0 520 1 519 1 518 1 517 1
1026 0 5 506 0 520 1 519 1 518 1 517 1
1027 0 5 507 0 520 1 519 1 518 1 517 1
1028 0 5 508 0 520 1 519 1 518 1 517 1
1029 0 5 509 0 520 1 519 1 518 1 517 1
1030 0 5 510 0 520 1 519 1 518 1 517 1
1031 0 5 511 0 520 1 519 1 518 1 517 1
1032 0 5 512 0 520 1 519 1 518 1 517 1
1033 0 5 513 0 520 1 519 1 518 1 517 1
1034 0 5 514 0 520 1 519 1 518 1 517 1
1035 0 5 515 0 520 1 519 1 518 1 517 1
1036 0 5 516 0 520 1 519 1 518 1 517 1
1037 0 5 517 0 520 1 519 1 518 1 517 1
1038 0 5 518 0 520 1 519 1 518 1 517 1
1039 0 5 519 0 520 1 519 1 518 1 517 1
1040 0 5 520 0 520 1 519 1 518 1 517 1
-1
EOF
